# Solution for model F-JSSP-SDST
# Objective value = 2043
B0(12) 0
B1(16) 1
B2(14) 0
B3(16) 0
B4(17) 1
B5(16) 1
B6(13) 0
B7(12) 0
B8(16) 1
B9(16) 1
B10(13) 0
B11(13) 0
B12(9) 1
B13(11) 0
B14(13) 1
B15(14) 0
B16(16) 1
B17(16) 0
B18(13) 1
B19(9) 0
B20(12) 1
B21(14) 0
B22(14) 1
B23(14) 0
B24(10) 1
B25(15) 0
B26(13) 0
B27(13) 1
B28(14) 0
B29(15) 0
B30(13) 1
B31(13) 0
B32(10) 1
B33(0) 0
B34(2) 0
B35(0) 0
B36(4) 1
B37(4) 0
B38(0) 0
B39(4) 1
B40(2) 0
B41(0) 0
B42(4) 1
B43(0) 0
B44(0) 0
B45(6) 1
B46(2) 0
B47(0) 0
B48(2) 1
B49(0) 0
B50(2) 0
B51(0) 0
B52(2) 0
B53(0) 0
B54(2) 1
B55(2) 0
B56(2) 0
B57(2) 1
B58(0) 0
B59(2) 0
B60(2) 1
B61(2) 0
B62(0) 0
B63(0) 0
B64(2) 0
B65(0) 0
B66(0) 0
B67(0) 0
B68(2) 0
B69(0) 0
B70(2) 1
B71(4) 0
B72(0) 0
B73(2) 0
B74(2) 0
B75(0) 0
B76(4) 0
B77(2) 0
B78(0) 0
B79(0) 0
B80(0) 0
B81(0) 0
B82(2) 0
B83(0) 0
B84(2) 0
B85(2) 0
B86(0) 0
B87(2) 0
B88(0) 0
B89(0) 0
B90(4) 1
B91(2) 0
B92(0) 0
B93(0) 0
B94(0) 0
B95(0) 0
B96(2) 1
B97(0) 0
B98(0) 0
B99(2) 1
B100(2) 0
B101(0) 0
B102(2) 0
B103(0) 0
B104(0) 0
B105(4) 1
B106(2) 0
B107(0) 0
B108(0) 0
B109(0) 0
B110(0) 0
B111(0) 0
B112(0) 0
B113(0) 0
B114(0) 0
B115(0) 0
B116(4) 0
B117(0) 0
B118(2) 0
B119(2) 0
B120(0) 0
B121(2) 0
B122(4) 1
B123(0) 0
B124(0) 0
B125(0) 0
B126(0) 0
B127(0) 0
B128(0) 0
B129(0) 0
B130(0) 0
B131(0) 0
B132(4) 1
B133(0) 0
B134(0) 0
B135(4) 1
B136(0) 0
B137(0) 0
B138(0) 0
B139(0) 0
B140(0) 0
B141(0) 0
B142(0) 0
B143(0) 0
B144(0) 0
B145(0) 0
B146(2) 0
B147(0) 0
B148(0) 0
B149(2) 0
B150(2) 0
B151(4) 1
B152(0) 0
B153(0) 0
B154(0) 0
B155(0) 0
B156(0) 0
B157(0) 0
B158(0) 0
B159(0) 0
B160(2) 0
B161(0) 0
B162(0) 0
B163(2) 0
B164(4) 0
B165(0) 0
B166(4) 1
B167(4) 1
B168(0) 0
B169(0) 0
B170(0) 0
B171(0) 0
B172(0) 0
B173(0) 0
B174(0) 0
B175(0) 0
B176(0) 0
B177(0) 0
B178(0) 0
B179(0) 0
B180(4) 1
B181(0) 0
B182(0) 0
B183(0) 0
B184(0) 0
B185(0) 0
B186(0) 0
B187(0) 0
B188(0) 0
B189(0) 0
B190(0) 0
B191(0) 0
B192(0) 0
B193(0) 0
B194(0) 0
B195(0) 0
B196(2) 1
B197(2) 0
B198(0) 0
B199(0) 0
B200(0) 0
B201(0) 0
B202(0) 0
B203(0) 0
B204(0) 0
B205(0) 0
B206(0) 0
B207(0) 0
B208(0) 0
B209(0) 0
B210(0) 0
B211(2) 0
B212(2) 1
B213(0) 0
B214(0) 0
B215(0) 0
B216(0) 0
B217(0) 0
B218(0) 0
B219(0) 0
B220(0) 0
B221(0) 0
B222(0) 0
B223(0) 0
B224(0) 0
B225(0) 0
B226(0) 0
B227(0) 0
B228(0) 0
B229(0) 0
B230(0) 0
B231(0) 0
B232(0) 0
B233(0) 0
B234(0) 0
B235(0) 0
B236(0) 0
B237(0) 0
B238(0) 0
B239(0) 0
B240(0) 0
B241(0) 0
B242(0) 0
B243(0) 0
B244(0) 0
B245(0) 0
B246(0) 0
B247(0) 0
B248(0) 0
B249(0) 0
B250(0) 0
B251(0) 0
B252(0) 0
B253(0) 0
B254(0) 0
B255(0) 0
B256(0) 0
B257(0) 0
I258(13) 0
I259(17) 75
I260(15) 0
I261(19) 0
I262(19) 207
I263(18) 337
I264(16) 0
I265(13) 0
I266(17) 0
I267(18) 194
I268(16) 0
I269(15) 0
I270(11) 281
I271(12) 0
I272(14) 0
I273(16) 0
I274(18) 62
I275(18) 0
I276(16) 194
I277(12) 0
I278(12) 147
I279(14) 0
I280(15) 307
I281(15) 0
I282(11) 480
I283(15) 0
I284(13) 0
I285(13) 10
I286(15) 0
I287(17) 0
I288(15) 138
I289(14) 0
I290(12) 185
I291(1) 2043
